1,18713,48128,31298,48996,1272,36449,24326,32567,25947,2122,2679,12751,1296,20446,48410,2362,12708,17406,22729,50606,
2,1272,1272,2100,3840,669,1658,3032,1658,1865,642,6740,5509,2857,402,738,3788,644,738,6201,33021,
3,402,642,1112,738,402,648,644,1135,1349,648,1711,1295,1657,3584,402,642,1272,2434,2035,402,
4,402,402,402,402,644,642,1135,644,402,644,642,642,642,402,648,402,648,648,7540,30513,
5,402,402,402,644,642,402,644,644,402,648,402,402,402,402,402,402,402,6880,6540,24748,
6,402,402,402,402,402,402,402,402,402,402,402,402,402,402,402,402,402,402,3568,21658,
7,402,402,402,402,402,402,402,402,402,402,402,402,402,402,402,402,402,402,30569,402,
8,402,402,402,402,402,402,402,402,402,402,402,402,402,402,402,402,402,402,3899,47198,
9,402,402,402,402,402,402,402,402,402,402,402,402,402,402,402,402,402,402,16068,8076,
10,402,402,402,402,402,5125,402,402,402,402,402,402,402,402,402,402,402,402,402,7472,
11,402,402,402,402,402,402,402,402,402,402,402,402,402,402,402,402,402,402,5187,25489,
12,402,402,402,402,402,402,402,402,402,402,402,402,402,402,402,402,402,402,12280,3163,
13,402,402,402,402,402,402,402,402,402,402,402,402,402,402,402,402,402,402,11233,35103,
14,402,402,402,402,402,402,402,402,402,402,402,402,402,402,402,402,402,402,402,17118,
15,402,402,402,402,402,402,402,402,402,402,402,402,402,402,402,402,402,402,19829,29161,
16,402,402,402,402,402,402,402,402,402,402,402,402,402,402,402,402,402,402,44536,2550,
17,402,402,402,402,402,402,402,402,402,402,402,402,402,402,402,402,402,402,42219,12280,
18,402,402,402,402,402,402,402,402,402,402,402,402,402,402,402,402,402,402,402,23685,
19,402,402,402,402,402,402,402,402,402,402,402,402,402,402,402,402,402,402,16979,11273,
20,402,402,402,402,402,402,402,402,402,402,402,402,402,402,402,1151,402,402,402,13392,
21,402,402,402,402,402,402,402,402,402,2253,402,402,402,402,402,402,402,402,33045,402,
22,402,402,402,402,402,402,402,402,402,402,402,402,402,402,402,402,402,402,6236,1309,
23,402,402,402,402,402,402,402,402,402,402,402,402,402,402,402,402,402,402,4783,1106,
24,402,402,402,402,402,402,402,402,402,402,402,402,402,402,402,402,402,402,21652,402,
25,402,402,402,402,402,402,402,402,402,402,402,402,402,402,402,402,402,402,8916,402,
26,402,402,402,402,402,402,402,402,402,402,402,402,402,402,402,402,402,402,402,25739,
27,402,402,402,402,402,402,402,402,402,402,402,402,402,402,402,402,402,402,52093,1166,
28,402,402,402,402,402,402,402,402,402,402,402,402,402,402,402,402,402,402,3907,56232,
29,402,402,402,402,402,402,402,402,402,402,402,402,402,402,402,402,402,402,57276,22105,
30,402,402,402,402,402,402,402,402,402,402,402,402,402,402,402,402,402,402,29877,21040,
31,402,402,402,402,402,402,1360,402,402,402,402,402,402,402,402,402,402,402,12275,6219,
32,402,402,402,402,402,402,402,402,402,402,402,402,402,402,2782,402,402,402,11810,402,
33,402,402,402,402,402,402,402,402,402,402,402,402,402,402,402,402,402,402,5778,48206,
34,402,402,402,402,402,402,402,402,402,402,402,402,402,402,402,402,402,402,1772,402,
35,402,402,402,402,402,402,402,402,402,402,402,402,402,402,402,402,402,402,9109,6982,
36,402,402,402,402,402,402,402,402,402,402,402,402,402,402,402,402,402,402,2659,4975,
37,402,402,402,402,402,402,402,402,402,402,402,402,402,402,402,402,402,402,6356,2010,
38,402,402,402,402,402,402,402,402,402,402,402,402,402,402,402,402,402,402,7437,35049,
39,402,402,402,402,402,402,402,402,402,402,402,402,402,402,402,402,402,402,30578,8519,
40,402,402,402,402,402,402,402,402,402,402,402,402,402,402,402,402,402,402,383,19220,
41,383,402,402,383,402,402,402,402,402,402,402,402,402,402,402,402,383,383,1321,1199,
42,383,383,402,402,383,402,383,383,383,383,383,402,402,402,383,402,402,383,5860,15795,
43,383,383,383,402,383,383,402,383,383,402,383,383,402,383,383,383,402,402,23934,682,
44,383,383,383,383,383,383,383,383,383,383,383,383,402,383,383,383,383,383,5252,37795,
45,383,383,383,383,383,383,383,383,383,383,383,6634,383,383,383,383,383,383,5432,5122,
46,383,383,383,383,383,383,383,383,383,383,383,383,383,383,383,383,383,383,27628,35552,
47,383,383,383,383,383,383,383,383,383,383,383,383,383,383,383,383,383,383,12162,1240,
48,383,383,383,383,383,383,383,383,383,383,383,383,383,383,383,383,383,383,383,8103,
49,383,383,383,383,383,383,383,383,383,383,383,383,383,383,383,383,383,383,9366,17872,
50,383,383,383,383,383,383,383,383,383,383,383,383,383,383,383,383,383,383,4949,16721,
51,383,383,383,383,383,383,383,383,383,383,383,383,383,383,383,383,383,383,34233,14012,
52,383,383,383,383,383,383,383,383,383,383,383,383,383,383,383,383,383,383,11880,31141,
53,383,383,383,383,383,383,383,383,383,383,383,383,383,383,383,383,383,383,39901,27741,
54,383,383,383,383,383,383,383,383,383,383,383,383,383,383,383,383,383,383,383,17784,
55,383,383,383,383,383,383,383,383,383,383,383,383,383,383,383,383,383,383,13297,46018,
56,383,383,383,383,383,383,383,383,383,383,383,383,383,383,383,383,383,383,20670,4201,
57,383,383,383,383,383,383,383,383,383,383,383,383,383,383,383,383,383,383,946,4312,
58,383,383,383,383,383,383,383,383,383,383,383,383,383,383,383,383,383,383,22590,30467,
59,383,383,383,383,383,383,383,383,383,383,383,383,383,383,383,383,383,383,40861,161,
60,161,383,161,161,383,383,383,161,383,161,383,383,383,383,383,383,161,383,4300,4487,
61,161,161,161,161,161,161,161,161,161,161,161,383,383,161,383,161,161,161,5528,25694,
62,161,161,161,161,161,161,161,161,161,161,161,161,161,161,161,161,161,161,10221,161,
63,161,161,161,161,161,161,161,161,161,161,161,161,161,161,161,161,161,161,9651,6203,
64,161,161,161,161,161,161,161,161,161,161,161,161,161,161,161,161,161,161,4304,161,
65,161,161,161,161,161,161,161,161,161,161,161,161,161,161,161,161,161,161,35713,18585,
66,161,161,161,161,161,161,161,161,161,161,161,161,161,161,161,161,161,161,3220,10716,
67,161,161,161,161,161,161,161,161,161,944,161,161,161,161,161,944,161,161,161,9507,
68,161,161,161,161,161,161,161,161,161,161,161,161,161,161,161,161,161,161,161,19604,
69,161,161,161,161,161,161,161,161,161,2225,161,161,161,161,2225,161,161,161,9050,2975,
70,161,161,161,161,161,161,161,161,161,161,161,161,161,161,161,161,161,161,41030,7587,
71,161,161,161,161,161,161,161,161,161,161,161,161,161,161,161,161,161,161,29307,161,
72,161,161,161,161,161,161,161,161,161,161,161,161,161,161,161,161,161,161,161,11656,
73,161,161,161,161,161,161,161,161,161,161,161,161,161,161,161,161,161,161,45768,9373,
74,161,161,161,161,161,161,161,161,161,161,161,161,161,161,161,161,161,161,7877,446,
75,161,161,161,161,161,161,161,161,161,161,161,161,161,161,161,161,161,161,32060,29329,
76,161,161,161,161,161,161,161,161,161,161,161,161,161,161,161,161,161,161,9052,11521,
77,161,161,161,161,161,161,161,161,161,161,161,161,161,161,161,161,161,161,37819,14889,
78,161,161,161,161,161,161,161,161,161,161,161,161,161,161,161,161,161,161,38618,11423,
79,161,161,161,161,161,161,161,161,161,161,161,161,161,161,161,161,161,161,46110,4465,
80,161,161,161,161,161,161,161,161,161,161,161,161,161,161,161,161,161,161,5429,884,
81,161,161,161,161,161,161,161,161,161,161,161,161,161,161,161,161,161,161,3895,10926,
82,161,161,161,161,161,161,161,161,161,161,161,161,161,161,161,161,161,161,7734,24457,
83,161,161,161,161,161,161,161,161,161,161,161,161,161,161,161,161,161,161,4863,161,
84,161,161,161,161,161,161,161,161,161,161,161,161,161,161,161,161,161,161,3959,37771,
85,161,161,161,161,161,161,161,161,161,161,161,161,161,161,161,161,161,161,39033,52240,
86,161,161,161,161,161,161,161,161,161,161,161,161,161,161,161,161,161,161,16437,10581,
87,161,161,161,161,161,161,161,161,161,161,161,161,161,161,161,161,161,161,19685,5123,
88,161,161,161,161,161,161,161,161,161,161,161,161,161,161,161,161,161,161,21090,15570,
89,161,161,161,161,161,161,161,161,161,161,161,161,161,161,161,161,161,161,23077,11484,
90,161,161,161,161,161,161,161,161,161,161,161,161,161,161,161,161,161,161,6093,13464,
91,161,161,161,161,161,161,161,161,161,161,161,161,161,161,161,161,161,161,4367,568,
92,161,161,161,161,161,281,161,161,161,161,161,161,161,161,161,161,161,161,13932,7787,
93,161,161,161,161,161,161,161,161,161,161,161,161,161,161,161,161,161,161,161,25614,
94,161,161,161,161,161,161,161,161,161,161,161,161,161,161,161,161,161,161,11760,161,
95,161,161,161,161,161,161,161,161,161,161,161,161,161,161,161,161,161,161,36313,2150,
96,161,161,161,161,161,161,161,161,161,161,161,161,161,161,161,161,161,161,14907,161,
97,161,161,161,161,161,161,161,161,161,161,161,161,161,161,161,161,161,161,12221,44740,
98,161,161,161,161,161,161,161,161,161,161,161,161,161,161,161,161,161,161,1957,19902,
99,161,161,161,161,161,161,161,161,161,161,161,161,161,161,161,161,161,161,48324,27197,
100,161,161,161,161,161,161,161,161,161,161,161,161,161,161,161,161,161,161,15528,28513,
